TYPE : Vertex Cover
DIMENSION: 32
EDGE_DATA_SECTION:
0 2
0 6
0 8
0 20
0 21
0 22
0 28
0 30
1 2
1 5
1 7
1 12
1 13
1 18
1 19
1 26
1 30
2 10
2 11
2 14
2 21
2 30
2 31
3 11
3 12
3 20
3 26
3 28
4 11
4 13
4 14
4 19
4 20
4 21
4 23
4 24
5 8
5 9
5 11
5 12
5 16
5 19
5 21
5 22
5 23
5 28
5 30
6 9
6 10
6 14
6 19
6 25
6 30
7 10
7 18
7 19
7 28
7 31
8 9
8 10
8 12
8 14
8 17
8 22
8 25
8 26
8 30
9 11
9 15
9 17
9 20
10 11
10 12
10 15
10 17
10 31
11 16
11 17
11 22
11 25
11 28
11 29
12 14
12 18
12 23
12 28
13 16
13 21
13 29
14 20
14 25
14 28
14 29
15 20
15 28
16 17
16 19
16 27
17 20
17 23
17 26
17 30
18 21
18 30
18 31
19 22
19 23
19 24
19 25
19 28
19 29
19 30
20 27
20 30
21 24
21 26
21 30
22 25
22 27
22 28
22 31
23 28
23 29
23 31
24 25
24 26
24 27
26 30
29 30
29 31
-1
VERTEX_DEGREE:
8.0 9.0 8.0 5.0 8.0 12.0 7.0 6.0 11.0 7.0 9.0 12.0 9.0 5.0 9.0 4.0 6.0 9.0 6.0 13.0 9.0 9.0 9.0 8.0 6.0 7.0 7.0 4.0 11.0 7.0 13.0 7.0
VERTEX_COVER:
0 1 7 8 9 10 11 12 13 14 16 19 20 21 22 23 24 25 26 28 30 31
EOF
